; benchmark generated from python API
(set-info :status unknown)
(declare-fun x_months () Int)
(declare-fun x_beta () Int)
(declare-fun y_months () Int)
(declare-fun y_beta () Int)
(assert
 (<= (- 1202) x_months))
(assert
 (>= 1209 x_months))
(assert
 (let ((?x2371 (mod x_months 48)))
 (let ((?x13 ((as const (Array Int Int)) 0)))
 (let ((?x15 (store ?x13 0 31)))
 (let ((?x18 (store ?x15 1 30)))
 (let ((?x20 (store ?x18 2 31)))
 (let ((?x22 (store ?x20 3 30)))
 (let ((?x24 (store ?x22 4 31)))
 (let ((?x26 (store ?x24 5 31)))
 (let ((?x28 (store ?x26 6 30)))
 (let ((?x30 (store ?x28 7 31)))
 (let ((?x32 (store ?x30 8 30)))
 (let ((?x34 (store ?x32 9 31)))
 (let ((?x36 (store ?x34 10 31)))
 (let ((?x39 (store ?x36 11 28)))
 (let ((?x41 (store ?x39 12 31)))
 (let ((?x43 (store ?x41 13 30)))
 (let ((?x45 (store ?x43 14 31)))
 (let ((?x47 (store ?x45 15 30)))
 (let ((?x49 (store ?x47 16 31)))
 (let ((?x51 (store ?x49 17 31)))
 (let ((?x53 (store ?x51 18 30)))
 (let ((?x55 (store ?x53 19 31)))
 (let ((?x57 (store ?x55 20 30)))
 (let ((?x59 (store ?x57 21 31)))
 (let ((?x61 (store ?x59 22 31)))
 (let ((?x63 (store ?x61 23 28)))
 (let ((?x65 (store ?x63 24 31)))
 (let ((?x67 (store ?x65 25 30)))
 (let ((?x69 (store ?x67 26 31)))
 (let ((?x71 (store ?x69 27 30)))
 (let ((?x72 (store ?x71 28 31)))
 (let ((?x74 (store ?x72 29 31)))
 (let ((?x75 (store ?x74 30 30)))
 (let ((?x76 (store ?x75 31 31)))
 (let ((?x78 (store ?x76 32 30)))
 (let ((?x80 (store ?x78 33 31)))
 (let ((?x82 (store ?x80 34 31)))
 (let ((?x84 (store ?x82 35 28)))
 (let ((?x86 (store ?x84 36 31)))
 (let ((?x88 (store ?x86 37 30)))
 (let ((?x90 (store ?x88 38 31)))
 (let ((?x92 (store ?x90 39 30)))
 (let ((?x94 (store ?x92 40 31)))
 (let ((?x96 (store ?x94 41 31)))
 (let ((?x98 (store ?x96 42 30)))
 (let ((?x100 (store ?x98 43 31)))
 (let ((?x102 (store ?x100 44 30)))
 (let ((?x104 (store ?x102 45 31)))
 (let ((?x106 (store ?x104 46 31)))
 (let ((?x108 (store ?x106 47 29)))
 (let ((?x2357 (ite (or (= 22802 (+ x_months 24003)) (= 25202 (+ x_months 24003))) 28 (select ?x108 ?x2371))))
 (let (($x399 (<= 0 x_beta)))
 (and $x399 (< x_beta ?x2357)))))))))))))))))))))))))))))))))))))))))))))))))))))))
(assert
 (<= (- 1202) y_months))
(assert
 (>= 1209 y_months))
(assert
 (let ((?x1204 (mod y_months 48)))
 (let ((?x13 ((as const (Array Int Int)) 0)))
 (let ((?x15 (store ?x13 0 31)))
 (let ((?x18 (store ?x15 1 30)))
 (let ((?x20 (store ?x18 2 31)))
 (let ((?x22 (store ?x20 3 30)))
 (let ((?x24 (store ?x22 4 31)))
 (let ((?x26 (store ?x24 5 31)))
 (let ((?x28 (store ?x26 6 30)))
 (let ((?x30 (store ?x28 7 31)))
 (let ((?x32 (store ?x30 8 30)))
 (let ((?x34 (store ?x32 9 31)))
 (let ((?x36 (store ?x34 10 31)))
 (let ((?x39 (store ?x36 11 28)))
 (let ((?x41 (store ?x39 12 31)))
 (let ((?x43 (store ?x41 13 30)))
 (let ((?x45 (store ?x43 14 31)))
 (let ((?x47 (store ?x45 15 30)))
 (let ((?x49 (store ?x47 16 31)))
 (let ((?x51 (store ?x49 17 31)))
 (let ((?x53 (store ?x51 18 30)))
 (let ((?x55 (store ?x53 19 31)))
 (let ((?x57 (store ?x55 20 30)))
 (let ((?x59 (store ?x57 21 31)))
 (let ((?x61 (store ?x59 22 31)))
 (let ((?x63 (store ?x61 23 28)))
 (let ((?x65 (store ?x63 24 31)))
 (let ((?x67 (store ?x65 25 30)))
 (let ((?x69 (store ?x67 26 31)))
 (let ((?x71 (store ?x69 27 30)))
 (let ((?x72 (store ?x71 28 31)))
 (let ((?x74 (store ?x72 29 31)))
 (let ((?x75 (store ?x74 30 30)))
 (let ((?x76 (store ?x75 31 31)))
 (let ((?x78 (store ?x76 32 30)))
 (let ((?x80 (store ?x78 33 31)))
 (let ((?x82 (store ?x80 34 31)))
 (let ((?x84 (store ?x82 35 28)))
 (let ((?x86 (store ?x84 36 31)))
 (let ((?x88 (store ?x86 37 30)))
 (let ((?x90 (store ?x88 38 31)))
 (let ((?x92 (store ?x90 39 30)))
 (let ((?x94 (store ?x92 40 31)))
 (let ((?x96 (store ?x94 41 31)))
 (let ((?x98 (store ?x96 42 30)))
 (let ((?x100 (store ?x98 43 31)))
 (let ((?x102 (store ?x100 44 30)))
 (let ((?x104 (store ?x102 45 31)))
 (let ((?x106 (store ?x104 46 31)))
 (let ((?x108 (store ?x106 47 29)))
 (let ((?x1434 (select ?x108 ?x1204)))
 (let ((?x1897 (ite (or (= 22802 (+ y_months 24003)) (= 25202 (+ y_months 24003))) 28 ?x1434)))
 (let (($x541 (<= 0 y_beta)))
 (and $x541 (< y_beta ?x1897))))))))))))))))))))))))))))))))))))))))))))))))))))))))
(assert
 (let (($x399 (<= 0 x_beta)))
 (or (> x_months (- (+ (* 2023 12) 6) 24003)) (and (= x_months (- (+ (* 2023 12) 6) 24003)) $x399))))
(assert
 (let ((?x1942 (ite (> 22803 (+ (+ x_months 1) 24003)) 1 (ite (<= 25203 (+ (+ x_months 1) 24003)) (- 1) 0))))
 (let ((?x1585 (+ x_months 1)))
 (let ((?x943 (mod ?x1585 48)))
 (let ((?x13 ((as const (Array Int Int)) 0)))
 (let ((?x15 (store ?x13 0 31)))
 (let ((?x18 (store ?x15 1 30)))
 (let ((?x20 (store ?x18 2 31)))
 (let ((?x22 (store ?x20 3 30)))
 (let ((?x24 (store ?x22 4 31)))
 (let ((?x26 (store ?x24 5 31)))
 (let ((?x28 (store ?x26 6 30)))
 (let ((?x30 (store ?x28 7 31)))
 (let ((?x32 (store ?x30 8 30)))
 (let ((?x34 (store ?x32 9 31)))
 (let ((?x36 (store ?x34 10 31)))
 (let ((?x39 (store ?x36 11 28)))
 (let ((?x41 (store ?x39 12 31)))
 (let ((?x43 (store ?x41 13 30)))
 (let ((?x45 (store ?x43 14 31)))
 (let ((?x47 (store ?x45 15 30)))
 (let ((?x49 (store ?x47 16 31)))
 (let ((?x51 (store ?x49 17 31)))
 (let ((?x53 (store ?x51 18 30)))
 (let ((?x55 (store ?x53 19 31)))
 (let ((?x57 (store ?x55 20 30)))
 (let ((?x59 (store ?x57 21 31)))
 (let ((?x61 (store ?x59 22 31)))
 (let ((?x63 (store ?x61 23 28)))
 (let ((?x65 (store ?x63 24 31)))
 (let ((?x67 (store ?x65 25 30)))
 (let ((?x69 (store ?x67 26 31)))
 (let ((?x71 (store ?x69 27 30)))
 (let ((?x72 (store ?x71 28 31)))
 (let ((?x74 (store ?x72 29 31)))
 (let ((?x75 (store ?x74 30 30)))
 (let ((?x76 (store ?x75 31 31)))
 (let ((?x78 (store ?x76 32 30)))
 (let ((?x80 (store ?x78 33 31)))
 (let ((?x82 (store ?x80 34 31)))
 (let ((?x84 (store ?x82 35 28)))
 (let ((?x86 (store ?x84 36 31)))
 (let ((?x88 (store ?x86 37 30)))
 (let ((?x90 (store ?x88 38 31)))
 (let ((?x92 (store ?x90 39 30)))
 (let ((?x94 (store ?x92 40 31)))
 (let ((?x96 (store ?x94 41 31)))
 (let ((?x98 (store ?x96 42 30)))
 (let ((?x100 (store ?x98 43 31)))
 (let ((?x102 (store ?x100 44 30)))
 (let ((?x104 (store ?x102 45 31)))
 (let ((?x106 (store ?x104 46 31)))
 (let ((?x108 (store ?x106 47 29)))
 (let ((?x1579 (ite (or (= 22802 (+ ?x1585 24003)) (= 25202 (+ ?x1585 24003))) 28 (select ?x108 ?x943))))
 (let ((?x1513 (- ?x1579 1)))
 (let ((?x114 (store (store (store (store ?x13 0 0) 1 31) 2 61) 3 92)))
 (let ((?x122 (store (store (store (store ?x114 4 122) 5 153) 6 184) 7 214)))
 (let ((?x130 (store (store (store (store ?x122 8 245) 9 275) 10 306) 11 337)))
 (let ((?x138 (store (store (store (store ?x130 12 365) 13 396) 14 426) 15 457)))
 (let ((?x146 (store (store (store (store ?x138 16 487) 17 518) 18 549) 19 579)))
 (let ((?x154 (store (store (store (store ?x146 20 610) 21 640) 22 671) 23 702)))
 (let ((?x162 (store (store (store (store ?x154 24 730) 25 761) 26 791) 27 822)))
 (let ((?x170 (store (store (store (store ?x162 28 852) 29 883) 30 914) 31 944)))
 (let ((?x178 (store (store (store (store ?x170 32 975) 33 1005) 34 1036) 35 1067)))
 (let ((?x186 (store (store (store (store ?x178 36 1095) 37 1126) 38 1156) 39 1187)))
 (let ((?x194 (store (store (store (store ?x186 40 1217) 41 1248) 42 1279) 43 1309)))
 (let ((?x202 (store (store (store (store ?x194 44 1340) 45 1370) 46 1401) 47 1432)))
 (let ((?x488 (+ (select ?x202 ?x943) (ite (> 0 x_beta) 0 (ite (> x_beta ?x1513) ?x1513 x_beta)))))
 (let ((?x2148 (+ (+ ?x488 ?x1942) 0)))
 (let ((?x2111 (+ ?x1585 (* (div ?x2148 1461) 48))))
 (let ((?x1299 (+ (+ ?x2111 (- 1 ?x943)) 24003)))
 (let ((?x1644 (select ?x202 1)))
 (let ((?x1717 (mod ?x2148 1461)))
 (let (($x353 (>= ?x1717 (+ ?x1644 (ite (> 22803 ?x1299) 1 (ite (<= 25203 ?x1299) (- 1) 0))))))
 (let ((?x1483 (ite (> 22803 (+ (+ ?x2111 (- 2 ?x943)) 24003)) 1 (ite (<= 25203 (+ (+ ?x2111 (- 2 ?x943)) 24003)) (- 1) 0))))
 (let ((?x1419 (select ?x202 2)))
 (let ((?x1463 (ite (> 22803 (+ (+ ?x2111 (- 3 ?x943)) 24003)) 1 (ite (<= 25203 (+ (+ ?x2111 (- 3 ?x943)) 24003)) (- 1) 0))))
 (let ((?x1480 (select ?x202 3)))
 (let ((?x1552 (ite (>= ?x1717 (+ ?x1480 ?x1463)) 3 (ite (>= ?x1717 (+ ?x1419 ?x1483)) 2 (ite $x353 1 0)))))
 (let ((?x2131 (ite (> 22803 (+ (+ ?x2111 (- 4 ?x943)) 24003)) 1 (ite (<= 25203 (+ (+ ?x2111 (- 4 ?x943)) 24003)) (- 1) 0))))
 (let ((?x870 (select ?x202 4)))
 (let ((?x2036 (ite (> 22803 (+ (+ ?x2111 (- 5 ?x943)) 24003)) 1 (ite (<= 25203 (+ (+ ?x2111 (- 5 ?x943)) 24003)) (- 1) 0))))
 (let ((?x2026 (select ?x202 5)))
 (let ((?x2114 (ite (>= ?x1717 (+ ?x2026 ?x2036)) 5 (ite (>= ?x1717 (+ ?x870 ?x2131)) 4 ?x1552))))
 (let ((?x2011 (ite (> 22803 (+ (+ ?x2111 (- 6 ?x943)) 24003)) 1 (ite (<= 25203 (+ (+ ?x2111 (- 6 ?x943)) 24003)) (- 1) 0))))
 (let ((?x1994 (select ?x202 6)))
 (let ((?x2154 (ite (> 22803 (+ (+ ?x2111 (- 7 ?x943)) 24003)) 1 (ite (<= 25203 (+ (+ ?x2111 (- 7 ?x943)) 24003)) (- 1) 0))))
 (let ((?x1881 (select ?x202 7)))
 (let ((?x1486 (ite (>= ?x1717 (+ ?x1881 ?x2154)) 7 (ite (>= ?x1717 (+ ?x1994 ?x2011)) 6 ?x2114))))
 (let ((?x451 (ite (> 22803 (+ (+ ?x2111 (- 8 ?x943)) 24003)) 1 (ite (<= 25203 (+ (+ ?x2111 (- 8 ?x943)) 24003)) (- 1) 0))))
 (let ((?x1845 (select ?x202 8)))
 (let ((?x570 (ite (> 22803 (+ (+ ?x2111 (- 9 ?x943)) 24003)) 1 (ite (<= 25203 (+ (+ ?x2111 (- 9 ?x943)) 24003)) (- 1) 0))))
 (let ((?x1765 (select ?x202 9)))
 (let ((?x1563 (ite (>= ?x1717 (+ ?x1765 ?x570)) 9 (ite (>= ?x1717 (+ ?x1845 ?x451)) 8 ?x1486))))
 (let ((?x1300 (ite (> 22803 (+ (+ ?x2111 (- 10 ?x943)) 24003)) 1 (ite (<= 25203 (+ (+ ?x2111 (- 10 ?x943)) 24003)) (- 1) 0))))
 (let ((?x2189 (select ?x202 10)))
 (let ((?x1866 (ite (> 22803 (+ (+ ?x2111 (- 11 ?x943)) 24003)) 1 (ite (<= 25203 (+ (+ ?x2111 (- 11 ?x943)) 24003)) (- 1) 0))))
 (let ((?x1525 (select ?x202 11)))
 (let ((?x1435 (ite (>= ?x1717 (+ ?x1525 ?x1866)) 11 (ite (>= ?x1717 (+ ?x2189 ?x1300)) 10 ?x1563))))
 (let ((?x1825 (ite (> 22803 (+ (+ ?x2111 (- 12 ?x943)) 24003)) 1 (ite (<= 25203 (+ (+ ?x2111 (- 12 ?x943)) 24003)) (- 1) 0))))
 (let ((?x2895 (select ?x202 12)))
 (let ((?x2898 (ite (> 22803 (+ (+ ?x2111 (- 13 ?x943)) 24003)) 1 (ite (<= 25203 (+ (+ ?x2111 (- 13 ?x943)) 24003)) (- 1) 0))))
 (let ((?x2902 (select ?x202 13)))
 (let ((?x2913 (ite (>= ?x1717 (+ ?x2902 ?x2898)) 13 (ite (>= ?x1717 (+ ?x2895 ?x1825)) 12 ?x1435))))
 (let ((?x2875 (ite (> 22803 (+ (+ ?x2111 (- 14 ?x943)) 24003)) 1 (ite (<= 25203 (+ (+ ?x2111 (- 14 ?x943)) 24003)) (- 1) 0))))
 (let ((?x2868 (select ?x202 14)))
 (let ((?x1986 (ite (> 22803 (+ (+ ?x2111 (- 15 ?x943)) 24003)) 1 (ite (<= 25203 (+ (+ ?x2111 (- 15 ?x943)) 24003)) (- 1) 0))))
 (let ((?x2200 (select ?x202 15)))
 (let ((?x1596 (ite (>= ?x1717 (+ ?x2200 ?x1986)) 15 (ite (>= ?x1717 (+ ?x2868 ?x2875)) 14 ?x2913))))
 (let ((?x1195 (ite (> 22803 (+ (+ ?x2111 (- 16 ?x943)) 24003)) 1 (ite (<= 25203 (+ (+ ?x2111 (- 16 ?x943)) 24003)) (- 1) 0))))
 (let ((?x1753 (select ?x202 16)))
 (let ((?x1136 (ite (> 22803 (+ (+ ?x2111 (- 17 ?x943)) 24003)) 1 (ite (<= 25203 (+ (+ ?x2111 (- 17 ?x943)) 24003)) (- 1) 0))))
 (let ((?x1139 (select ?x202 17)))
 (let ((?x2907 (ite (>= ?x1717 (+ ?x1139 ?x1136)) 17 (ite (>= ?x1717 (+ ?x1753 ?x1195)) 16 ?x1596))))
 (let ((?x2833 (ite (> 22803 (+ (+ ?x2111 (- 18 ?x943)) 24003)) 1 (ite (<= 25203 (+ (+ ?x2111 (- 18 ?x943)) 24003)) (- 1) 0))))
 (let ((?x2836 (select ?x202 18)))
 (let ((?x2819 (ite (> 22803 (+ (+ ?x2111 (- 19 ?x943)) 24003)) 1 (ite (<= 25203 (+ (+ ?x2111 (- 19 ?x943)) 24003)) (- 1) 0))))
 (let ((?x2820 (select ?x202 19)))
 (let ((?x2750 (ite (>= ?x1717 (+ ?x2820 ?x2819)) 19 (ite (>= ?x1717 (+ ?x2836 ?x2833)) 18 ?x2907))))
 (let ((?x2582 (ite (> 22803 (+ (+ ?x2111 (- 20 ?x943)) 24003)) 1 (ite (<= 25203 (+ (+ ?x2111 (- 20 ?x943)) 24003)) (- 1) 0))))
 (let ((?x2586 (select ?x202 20)))
 (let ((?x2434 (ite (> 22803 (+ (+ ?x2111 (- 21 ?x943)) 24003)) 1 (ite (<= 25203 (+ (+ ?x2111 (- 21 ?x943)) 24003)) (- 1) 0))))
 (let ((?x2399 (select ?x202 21)))
 (let ((?x2835 (ite (>= ?x1717 (+ ?x2399 ?x2434)) 21 (ite (>= ?x1717 (+ ?x2586 ?x2582)) 20 ?x2750))))
 (let ((?x2143 (ite (> 22803 (+ (+ ?x2111 (- 22 ?x943)) 24003)) 1 (ite (<= 25203 (+ (+ ?x2111 (- 22 ?x943)) 24003)) (- 1) 0))))
 (let ((?x2855 (select ?x202 22)))
 (let ((?x2383 (ite (> 22803 (+ (+ ?x2111 (- 23 ?x943)) 24003)) 1 (ite (<= 25203 (+ (+ ?x2111 (- 23 ?x943)) 24003)) (- 1) 0))))
 (let ((?x2571 (select ?x202 23)))
 (let ((?x2568 (ite (>= ?x1717 (+ ?x2571 ?x2383)) 23 (ite (>= ?x1717 (+ ?x2855 ?x2143)) 22 ?x2835))))
 (let ((?x2519 (ite (> 22803 (+ (+ ?x2111 (- 24 ?x943)) 24003)) 1 (ite (<= 25203 (+ (+ ?x2111 (- 24 ?x943)) 24003)) (- 1) 0))))
 (let ((?x2543 (select ?x202 24)))
 (let ((?x2249 (ite (> 22803 (+ (+ ?x2111 (- 25 ?x943)) 24003)) 1 (ite (<= 25203 (+ (+ ?x2111 (- 25 ?x943)) 24003)) (- 1) 0))))
 (let ((?x2656 (select ?x202 25)))
 (let ((?x2653 (ite (>= ?x1717 (+ ?x2656 ?x2249)) 25 (ite (>= ?x1717 (+ ?x2543 ?x2519)) 24 ?x2568))))
 (let ((?x2262 (ite (> 22803 (+ (+ ?x2111 (- 26 ?x943)) 24003)) 1 (ite (<= 25203 (+ (+ ?x2111 (- 26 ?x943)) 24003)) (- 1) 0))))
 (let ((?x2266 (select ?x202 26)))
 (let ((?x1126 (ite (> 22803 (+ (+ ?x2111 (- 27 ?x943)) 24003)) 1 (ite (<= 25203 (+ (+ ?x2111 (- 27 ?x943)) 24003)) (- 1) 0))))
 (let ((?x783 (select ?x202 27)))
 (let ((?x986 (ite (>= ?x1717 (+ ?x783 ?x1126)) 27 (ite (>= ?x1717 (+ ?x2266 ?x2262)) 26 ?x2653))))
 (let ((?x2818 (ite (> 22803 (+ (+ ?x2111 (- 28 ?x943)) 24003)) 1 (ite (<= 25203 (+ (+ ?x2111 (- 28 ?x943)) 24003)) (- 1) 0))))
 (let ((?x2038 (select ?x202 28)))
 (let ((?x1773 (ite (> 22803 (+ (+ ?x2111 (- 29 ?x943)) 24003)) 1 (ite (<= 25203 (+ (+ ?x2111 (- 29 ?x943)) 24003)) (- 1) 0))))
 (let ((?x1755 (select ?x202 29)))
 (let ((?x2369 (ite (>= ?x1717 (+ ?x1755 ?x1773)) 29 (ite (>= ?x1717 (+ ?x2038 ?x2818)) 28 ?x986))))
 (let ((?x1511 (ite (> 22803 (+ (+ ?x2111 (- 30 ?x943)) 24003)) 1 (ite (<= 25203 (+ (+ ?x2111 (- 30 ?x943)) 24003)) (- 1) 0))))
 (let ((?x1962 (select ?x202 30)))
 (let ((?x251 (ite (> 22803 (+ (+ ?x2111 (- 31 ?x943)) 24003)) 1 (ite (<= 25203 (+ (+ ?x2111 (- 31 ?x943)) 24003)) (- 1) 0))))
 (let ((?x1425 (select ?x202 31)))
 (let ((?x1739 (ite (>= ?x1717 (+ ?x1425 ?x251)) 31 (ite (>= ?x1717 (+ ?x1962 ?x1511)) 30 ?x2369))))
 (let ((?x1456 (ite (> 22803 (+ (+ ?x2111 (- 32 ?x943)) 24003)) 1 (ite (<= 25203 (+ (+ ?x2111 (- 32 ?x943)) 24003)) (- 1) 0))))
 (let ((?x706 (select ?x202 32)))
 (let ((?x2857 (ite (> 22803 (+ (+ ?x2111 (- 33 ?x943)) 24003)) 1 (ite (<= 25203 (+ (+ ?x2111 (- 33 ?x943)) 24003)) (- 1) 0))))
 (let ((?x2869 (select ?x202 33)))
 (let ((?x2886 (ite (>= ?x1717 (+ ?x2869 ?x2857)) 33 (ite (>= ?x1717 (+ ?x706 ?x1456)) 32 ?x1739))))
 (let ((?x590 (ite (> 22803 (+ (+ ?x2111 (- 34 ?x943)) 24003)) 1 (ite (<= 25203 (+ (+ ?x2111 (- 34 ?x943)) 24003)) (- 1) 0))))
 (let ((?x1116 (select ?x202 34)))
 (let ((?x1285 (ite (> 22803 (+ (+ ?x2111 (- 35 ?x943)) 24003)) 1 (ite (<= 25203 (+ (+ ?x2111 (- 35 ?x943)) 24003)) (- 1) 0))))
 (let ((?x1871 (select ?x202 35)))
 (let ((?x1506 (ite (>= ?x1717 (+ ?x1871 ?x1285)) 35 (ite (>= ?x1717 (+ ?x1116 ?x590)) 34 ?x2886))))
 (let ((?x1869 (ite (> 22803 (+ (+ ?x2111 (- 36 ?x943)) 24003)) 1 (ite (<= 25203 (+ (+ ?x2111 (- 36 ?x943)) 24003)) (- 1) 0))))
 (let ((?x1859 (select ?x202 36)))
 (let ((?x753 (ite (> 22803 (+ (+ ?x2111 (- 37 ?x943)) 24003)) 1 (ite (<= 25203 (+ (+ ?x2111 (- 37 ?x943)) 24003)) (- 1) 0))))
 (let ((?x1540 (select ?x202 37)))
 (let ((?x1643 (ite (>= ?x1717 (+ ?x1540 ?x753)) 37 (ite (>= ?x1717 (+ ?x1859 ?x1869)) 36 ?x1506))))
 (let ((?x1192 (ite (> 22803 (+ (+ ?x2111 (- 38 ?x943)) 24003)) 1 (ite (<= 25203 (+ (+ ?x2111 (- 38 ?x943)) 24003)) (- 1) 0))))
 (let ((?x982 (select ?x202 38)))
 (let ((?x2841 (ite (> 22803 (+ (+ ?x2111 (- 39 ?x943)) 24003)) 1 (ite (<= 25203 (+ (+ ?x2111 (- 39 ?x943)) 24003)) (- 1) 0))))
 (let ((?x1504 (select ?x202 39)))
 (let ((?x1985 (ite (>= ?x1717 (+ ?x1504 ?x2841)) 39 (ite (>= ?x1717 (+ ?x982 ?x1192)) 38 ?x1643))))
 (let ((?x2418 (ite (> 22803 (+ (+ ?x2111 (- 40 ?x943)) 24003)) 1 (ite (<= 25203 (+ (+ ?x2111 (- 40 ?x943)) 24003)) (- 1) 0))))
 (let ((?x2419 (select ?x202 40)))
 (let ((?x1475 (ite (> 22803 (+ (+ ?x2111 (- 41 ?x943)) 24003)) 1 (ite (<= 25203 (+ (+ ?x2111 (- 41 ?x943)) 24003)) (- 1) 0))))
 (let ((?x1544 (select ?x202 41)))
 (let ((?x2047 (ite (>= ?x1717 (+ ?x1544 ?x1475)) 41 (ite (>= ?x1717 (+ ?x2419 ?x2418)) 40 ?x1985))))
 (let ((?x2831 (ite (> 22803 (+ (+ ?x2111 (- 42 ?x943)) 24003)) 1 (ite (<= 25203 (+ (+ ?x2111 (- 42 ?x943)) 24003)) (- 1) 0))))
 (let ((?x2830 (select ?x202 42)))
 (let ((?x2550 (ite (> 22803 (+ (+ ?x2111 (- 43 ?x943)) 24003)) 1 (ite (<= 25203 (+ (+ ?x2111 (- 43 ?x943)) 24003)) (- 1) 0))))
 (let ((?x2600 (select ?x202 43)))
 (let ((?x2289 (ite (>= ?x1717 (+ ?x2600 ?x2550)) 43 (ite (>= ?x1717 (+ ?x2830 ?x2831)) 42 ?x2047))))
 (let ((?x2449 (ite (> 22803 (+ (+ ?x2111 (- 44 ?x943)) 24003)) 1 (ite (<= 25203 (+ (+ ?x2111 (- 44 ?x943)) 24003)) (- 1) 0))))
 (let ((?x2731 (select ?x202 44)))
 (let ((?x2899 (ite (> 22803 (+ (+ ?x2111 (- 45 ?x943)) 24003)) 1 (ite (<= 25203 (+ (+ ?x2111 (- 45 ?x943)) 24003)) (- 1) 0))))
 (let ((?x2900 (select ?x202 45)))
 (let ((?x2859 (ite (>= ?x1717 (+ ?x2900 ?x2899)) 45 (ite (>= ?x1717 (+ ?x2731 ?x2449)) 44 ?x2289))))
 (let ((?x247 (ite (> 22803 (+ (+ ?x2111 (- 46 ?x943)) 24003)) 1 (ite (<= 25203 (+ (+ ?x2111 (- 46 ?x943)) 24003)) (- 1) 0))))
 (let ((?x1974 (select ?x202 46)))
 (let ((?x2814 (ite (> 22803 (+ (+ ?x2111 (- 47 ?x943)) 24003)) 1 (ite (<= 25203 (+ (+ ?x2111 (- 47 ?x943)) 24003)) (- 1) 0))))
 (let ((?x2815 (select ?x202 47)))
 (let ((?x2894 (ite (>= ?x1717 (+ ?x2815 ?x2814)) 47 (ite (>= ?x1717 (+ ?x1974 ?x247)) 46 ?x2859))))
 (let (($x2260 (or (= 22802 (+ (+ ?x2111 (- ?x2894 ?x943)) 24003)) (= 25202 (+ (+ ?x2111 (- ?x2894 ?x943)) 24003)))))
 (let ((?x1015 (ite $x2260 28 (select ?x108 ?x2894))))
 (let ((?x2581 (ite (> 22803 (+ (+ ?x2111 (- ?x2894 ?x943)) 24003)) 1 (ite (<= 25203 (+ (+ ?x2111 (- ?x2894 ?x943)) 24003)) (- 1) 0))))
 (let ((?x2810 (- ?x1717 (+ (select ?x202 ?x2894) ?x2581))))
 (let ((?x2183 (ite (>= ?x2810 ?x1015) 1 0)))
 (let ((?x2901 (+ ?x2111 (- ?x2894 ?x943))))
 (let ((?x2079 (+ (+ ?x2901 ?x2183) 0)))
 (let ((?x2881 (mod ?x2079 48)))
 (let ((?x2633 (ite (> 22803 (+ ?x2079 24003)) 1 (ite (<= 25203 (+ ?x2079 24003)) (- 1) 0))))
 (let ((?x474 (ite (= 1 ?x2183) (- ?x2810 ?x1015) ?x2810)))
 (let ((?x939 (ite (or (= 22802 (+ ?x2079 24003)) (= 25202 (+ ?x2079 24003))) 28 (select ?x108 ?x2881))))
 (let ((?x2252 (- ?x939 1)))
 (let ((?x2700 (+ (select ?x202 ?x2881) (ite (> 0 ?x474) 0 (ite (> ?x474 ?x2252) ?x2252 ?x474)))))
 (let ((?x2400 (+ (+ ?x2700 ?x2633) 15)))
 (let ((?x2671 (+ ?x2079 (* (div ?x2400 1461) 48))))
 (let ((?x2668 (+ (+ ?x2671 (- 1 ?x2881)) 24003)))
 (let ((?x2798 (mod ?x2400 1461)))
 (let (($x2177 (>= ?x2798 (+ ?x1644 (ite (> 22803 ?x2668) 1 (ite (<= 25203 ?x2668) (- 1) 0))))))
 (let ((?x365 (ite (> 22803 (+ (+ ?x2671 (- 2 ?x2881)) 24003)) 1 (ite (<= 25203 (+ (+ ?x2671 (- 2 ?x2881)) 24003)) (- 1) 0))))
 (let ((?x925 (ite (> 22803 (+ (+ ?x2671 (- 3 ?x2881)) 24003)) 1 (ite (<= 25203 (+ (+ ?x2671 (- 3 ?x2881)) 24003)) (- 1) 0))))
 (let ((?x1685 (ite (>= ?x2798 (+ ?x1480 ?x925)) 3 (ite (>= ?x2798 (+ ?x1419 ?x365)) 2 (ite $x2177 1 0)))))
 (let ((?x2173 (ite (> 22803 (+ (+ ?x2671 (- 4 ?x2881)) 24003)) 1 (ite (<= 25203 (+ (+ ?x2671 (- 4 ?x2881)) 24003)) (- 1) 0))))
 (let ((?x319 (ite (> 22803 (+ (+ ?x2671 (- 5 ?x2881)) 24003)) 1 (ite (<= 25203 (+ (+ ?x2671 (- 5 ?x2881)) 24003)) (- 1) 0))))
 (let ((?x1400 (ite (>= ?x2798 (+ ?x2026 ?x319)) 5 (ite (>= ?x2798 (+ ?x870 ?x2173)) 4 ?x1685))))
 (let ((?x2110 (ite (> 22803 (+ (+ ?x2671 (- 6 ?x2881)) 24003)) 1 (ite (<= 25203 (+ (+ ?x2671 (- 6 ?x2881)) 24003)) (- 1) 0))))
 (let ((?x1495 (ite (> 22803 (+ (+ ?x2671 (- 7 ?x2881)) 24003)) 1 (ite (<= 25203 (+ (+ ?x2671 (- 7 ?x2881)) 24003)) (- 1) 0))))
 (let ((?x1824 (ite (>= ?x2798 (+ ?x1881 ?x1495)) 7 (ite (>= ?x2798 (+ ?x1994 ?x2110)) 6 ?x1400))))
 (let ((?x1237 (ite (> 22803 (+ (+ ?x2671 (- 8 ?x2881)) 24003)) 1 (ite (<= 25203 (+ (+ ?x2671 (- 8 ?x2881)) 24003)) (- 1) 0))))
 (let ((?x1700 (ite (> 22803 (+ (+ ?x2671 (- 9 ?x2881)) 24003)) 1 (ite (<= 25203 (+ (+ ?x2671 (- 9 ?x2881)) 24003)) (- 1) 0))))
 (let ((?x2204 (ite (>= ?x2798 (+ ?x1765 ?x1700)) 9 (ite (>= ?x2798 (+ ?x1845 ?x1237)) 8 ?x1824))))
 (let ((?x1808 (ite (> 22803 (+ (+ ?x2671 (- 10 ?x2881)) 24003)) 1 (ite (<= 25203 (+ (+ ?x2671 (- 10 ?x2881)) 24003)) (- 1) 0))))
 (let ((?x883 (ite (> 22803 (+ (+ ?x2671 (- 11 ?x2881)) 24003)) 1 (ite (<= 25203 (+ (+ ?x2671 (- 11 ?x2881)) 24003)) (- 1) 0))))
 (let ((?x874 (ite (>= ?x2798 (+ ?x1525 ?x883)) 11 (ite (>= ?x2798 (+ ?x2189 ?x1808)) 10 ?x2204))))
 (let ((?x891 (ite (> 22803 (+ (+ ?x2671 (- 12 ?x2881)) 24003)) 1 (ite (<= 25203 (+ (+ ?x2671 (- 12 ?x2881)) 24003)) (- 1) 0))))
 (let ((?x2531 (ite (> 22803 (+ (+ ?x2671 (- 13 ?x2881)) 24003)) 1 (ite (<= 25203 (+ (+ ?x2671 (- 13 ?x2881)) 24003)) (- 1) 0))))
 (let ((?x2282 (ite (>= ?x2798 (+ ?x2902 ?x2531)) 13 (ite (>= ?x2798 (+ ?x2895 ?x891)) 12 ?x874))))
 (let ((?x2838 (ite (> 22803 (+ (+ ?x2671 (- 14 ?x2881)) 24003)) 1 (ite (<= 25203 (+ (+ ?x2671 (- 14 ?x2881)) 24003)) (- 1) 0))))
 (let ((?x2245 (ite (> 22803 (+ (+ ?x2671 (- 15 ?x2881)) 24003)) 1 (ite (<= 25203 (+ (+ ?x2671 (- 15 ?x2881)) 24003)) (- 1) 0))))
 (let ((?x2228 (ite (>= ?x2798 (+ ?x2200 ?x2245)) 15 (ite (>= ?x2798 (+ ?x2868 ?x2838)) 14 ?x2282))))
 (let ((?x1722 (ite (> 22803 (+ (+ ?x2671 (- 16 ?x2881)) 24003)) 1 (ite (<= 25203 (+ (+ ?x2671 (- 16 ?x2881)) 24003)) (- 1) 0))))
 (let ((?x2239 (ite (> 22803 (+ (+ ?x2671 (- 17 ?x2881)) 24003)) 1 (ite (<= 25203 (+ (+ ?x2671 (- 17 ?x2881)) 24003)) (- 1) 0))))
 (let ((?x1035 (ite (>= ?x2798 (+ ?x1139 ?x2239)) 17 (ite (>= ?x2798 (+ ?x1753 ?x1722)) 16 ?x2228))))
 (let ((?x330 (ite (> 22803 (+ (+ ?x2671 (- 18 ?x2881)) 24003)) 1 (ite (<= 25203 (+ (+ ?x2671 (- 18 ?x2881)) 24003)) (- 1) 0))))
 (let ((?x2101 (ite (> 22803 (+ (+ ?x2671 (- 19 ?x2881)) 24003)) 1 (ite (<= 25203 (+ (+ ?x2671 (- 19 ?x2881)) 24003)) (- 1) 0))))
 (let ((?x897 (ite (>= ?x2798 (+ ?x2820 ?x2101)) 19 (ite (>= ?x2798 (+ ?x2836 ?x330)) 18 ?x1035))))
 (let ((?x1484 (ite (> 22803 (+ (+ ?x2671 (- 20 ?x2881)) 24003)) 1 (ite (<= 25203 (+ (+ ?x2671 (- 20 ?x2881)) 24003)) (- 1) 0))))
 (let ((?x2211 (ite (> 22803 (+ (+ ?x2671 (- 21 ?x2881)) 24003)) 1 (ite (<= 25203 (+ (+ ?x2671 (- 21 ?x2881)) 24003)) (- 1) 0))))
 (let ((?x253 (ite (>= ?x2798 (+ ?x2399 ?x2211)) 21 (ite (>= ?x2798 (+ ?x2586 ?x1484)) 20 ?x897))))
 (let ((?x2919 (ite (> 22803 (+ (+ ?x2671 (- 22 ?x2881)) 24003)) 1 (ite (<= 25203 (+ (+ ?x2671 (- 22 ?x2881)) 24003)) (- 1) 0))))
 (let ((?x1120 (ite (> 22803 (+ (+ ?x2671 (- 23 ?x2881)) 24003)) 1 (ite (<= 25203 (+ (+ ?x2671 (- 23 ?x2881)) 24003)) (- 1) 0))))
 (let ((?x914 (ite (>= ?x2798 (+ ?x2571 ?x1120)) 23 (ite (>= ?x2798 (+ ?x2855 ?x2919)) 22 ?x253))))
 (let ((?x1104 (ite (> 22803 (+ (+ ?x2671 (- 24 ?x2881)) 24003)) 1 (ite (<= 25203 (+ (+ ?x2671 (- 24 ?x2881)) 24003)) (- 1) 0))))
 (let ((?x2206 (ite (> 22803 (+ (+ ?x2671 (- 25 ?x2881)) 24003)) 1 (ite (<= 25203 (+ (+ ?x2671 (- 25 ?x2881)) 24003)) (- 1) 0))))
 (let ((?x2518 (ite (>= ?x2798 (+ ?x2656 ?x2206)) 25 (ite (>= ?x2798 (+ ?x2543 ?x1104)) 24 ?x914))))
 (let ((?x2929 (ite (> 22803 (+ (+ ?x2671 (- 26 ?x2881)) 24003)) 1 (ite (<= 25203 (+ (+ ?x2671 (- 26 ?x2881)) 24003)) (- 1) 0))))
 (let ((?x2939 (ite (> 22803 (+ (+ ?x2671 (- 27 ?x2881)) 24003)) 1 (ite (<= 25203 (+ (+ ?x2671 (- 27 ?x2881)) 24003)) (- 1) 0))))
 (let ((?x2938 (ite (>= ?x2798 (+ ?x783 ?x2939)) 27 (ite (>= ?x2798 (+ ?x2266 ?x2929)) 26 ?x2518))))
 (let ((?x2246 (ite (> 22803 (+ (+ ?x2671 (- 28 ?x2881)) 24003)) 1 (ite (<= 25203 (+ (+ ?x2671 (- 28 ?x2881)) 24003)) (- 1) 0))))
 (let ((?x3050 (ite (> 22803 (+ (+ ?x2671 (- 29 ?x2881)) 24003)) 1 (ite (<= 25203 (+ (+ ?x2671 (- 29 ?x2881)) 24003)) (- 1) 0))))
 (let ((?x3053 (ite (>= ?x2798 (+ ?x1755 ?x3050)) 29 (ite (>= ?x2798 (+ ?x2038 ?x2246)) 28 ?x2938))))
 (let ((?x3041 (ite (> 22803 (+ (+ ?x2671 (- 30 ?x2881)) 24003)) 1 (ite (<= 25203 (+ (+ ?x2671 (- 30 ?x2881)) 24003)) (- 1) 0))))
 (let ((?x3032 (ite (> 22803 (+ (+ ?x2671 (- 31 ?x2881)) 24003)) 1 (ite (<= 25203 (+ (+ ?x2671 (- 31 ?x2881)) 24003)) (- 1) 0))))
 (let ((?x3035 (ite (>= ?x2798 (+ ?x1425 ?x3032)) 31 (ite (>= ?x2798 (+ ?x1962 ?x3041)) 30 ?x3053))))
 (let ((?x3023 (ite (> 22803 (+ (+ ?x2671 (- 32 ?x2881)) 24003)) 1 (ite (<= 25203 (+ (+ ?x2671 (- 32 ?x2881)) 24003)) (- 1) 0))))
 (let ((?x3014 (ite (> 22803 (+ (+ ?x2671 (- 33 ?x2881)) 24003)) 1 (ite (<= 25203 (+ (+ ?x2671 (- 33 ?x2881)) 24003)) (- 1) 0))))
 (let ((?x3017 (ite (>= ?x2798 (+ ?x2869 ?x3014)) 33 (ite (>= ?x2798 (+ ?x706 ?x3023)) 32 ?x3035))))
 (let ((?x3005 (ite (> 22803 (+ (+ ?x2671 (- 34 ?x2881)) 24003)) 1 (ite (<= 25203 (+ (+ ?x2671 (- 34 ?x2881)) 24003)) (- 1) 0))))
 (let ((?x2996 (ite (> 22803 (+ (+ ?x2671 (- 35 ?x2881)) 24003)) 1 (ite (<= 25203 (+ (+ ?x2671 (- 35 ?x2881)) 24003)) (- 1) 0))))
 (let ((?x2980 (ite (>= ?x2798 (+ ?x1871 ?x2996)) 35 (ite (>= ?x2798 (+ ?x1116 ?x3005)) 34 ?x3017))))
 (let ((?x2987 (ite (> 22803 (+ (+ ?x2671 (- 36 ?x2881)) 24003)) 1 (ite (<= 25203 (+ (+ ?x2671 (- 36 ?x2881)) 24003)) (- 1) 0))))
 (let ((?x2978 (ite (> 22803 (+ (+ ?x2671 (- 37 ?x2881)) 24003)) 1 (ite (<= 25203 (+ (+ ?x2671 (- 37 ?x2881)) 24003)) (- 1) 0))))
 (let ((?x2962 (ite (>= ?x2798 (+ ?x1540 ?x2978)) 37 (ite (>= ?x2798 (+ ?x1859 ?x2987)) 36 ?x2980))))
 (let ((?x2795 (ite (> 22803 (+ (+ ?x2671 (- 38 ?x2881)) 24003)) 1 (ite (<= 25203 (+ (+ ?x2671 (- 38 ?x2881)) 24003)) (- 1) 0))))
 (let ((?x2783 (ite (> 22803 (+ (+ ?x2671 (- 39 ?x2881)) 24003)) 1 (ite (<= 25203 (+ (+ ?x2671 (- 39 ?x2881)) 24003)) (- 1) 0))))
 (let ((?x2786 (ite (>= ?x2798 (+ ?x1504 ?x2783)) 39 (ite (>= ?x2798 (+ ?x982 ?x2795)) 38 ?x2962))))
 (let ((?x2595 (ite (> 22803 (+ (+ ?x2671 (- 40 ?x2881)) 24003)) 1 (ite (<= 25203 (+ (+ ?x2671 (- 40 ?x2881)) 24003)) (- 1) 0))))
 (let ((?x2535 (ite (> 22803 (+ (+ ?x2671 (- 41 ?x2881)) 24003)) 1 (ite (<= 25203 (+ (+ ?x2671 (- 41 ?x2881)) 24003)) (- 1) 0))))
 (let ((?x2255 (ite (>= ?x2798 (+ ?x1544 ?x2535)) 41 (ite (>= ?x2798 (+ ?x2419 ?x2595)) 40 ?x2786))))
 (let ((?x2764 (ite (> 22803 (+ (+ ?x2671 (- 42 ?x2881)) 24003)) 1 (ite (<= 25203 (+ (+ ?x2671 (- 42 ?x2881)) 24003)) (- 1) 0))))
 (let ((?x2337 (ite (> 22803 (+ (+ ?x2671 (- 43 ?x2881)) 24003)) 1 (ite (<= 25203 (+ (+ ?x2671 (- 43 ?x2881)) 24003)) (- 1) 0))))
 (let ((?x2667 (ite (>= ?x2798 (+ ?x2600 ?x2337)) 43 (ite (>= ?x2798 (+ ?x2830 ?x2764)) 42 ?x2255))))
 (let ((?x2684 (ite (> 22803 (+ (+ ?x2671 (- 44 ?x2881)) 24003)) 1 (ite (<= 25203 (+ (+ ?x2671 (- 44 ?x2881)) 24003)) (- 1) 0))))
 (let ((?x2294 (ite (> 22803 (+ (+ ?x2671 (- 45 ?x2881)) 24003)) 1 (ite (<= 25203 (+ (+ ?x2671 (- 45 ?x2881)) 24003)) (- 1) 0))))
 (let ((?x2584 (ite (>= ?x2798 (+ ?x2900 ?x2294)) 45 (ite (>= ?x2798 (+ ?x2731 ?x2684)) 44 ?x2667))))
 (let ((?x2343 (ite (> 22803 (+ (+ ?x2671 (- 46 ?x2881)) 24003)) 1 (ite (<= 25203 (+ (+ ?x2671 (- 46 ?x2881)) 24003)) (- 1) 0))))
 (let ((?x2675 (ite (> 22803 (+ (+ ?x2671 (- 47 ?x2881)) 24003)) 1 (ite (<= 25203 (+ (+ ?x2671 (- 47 ?x2881)) 24003)) (- 1) 0))))
 (let ((?x2444 (ite (>= ?x2798 (+ ?x2815 ?x2675)) 47 (ite (>= ?x2798 (+ ?x1974 ?x2343)) 46 ?x2584))))
 (let ((?x2285 (+ ?x2671 (- ?x2444 ?x2881))))
 (let ((?x2547 (+ ?x2285 24003)))
 (let ((?x2575 (+ (select ?x202 ?x2444) (ite (> 22803 ?x2547) 1 (ite (<= 25203 ?x2547) (- 1) 0)))))
 (let ((?x2243 (- ?x2798 ?x2575)))
 (let ((?x2455 (ite (or (= 22802 ?x2547) (= 25202 ?x2547)) 28 (select ?x108 ?x2444))))
 (let (($x2523 (= (ite (= 1 (ite (>= ?x2243 ?x2455) 1 0)) (- ?x2243 ?x2455) ?x2243) y_beta)))
 (and (= (+ ?x2285 (ite (>= ?x2243 ?x2455) 1 0)) y_months) $x2523)))))))))))))))))))))))))))))))))))))))))))))))))))))))))))))))))))))))))))))))))))))))))))))))))))))))))))))))))))))))))))))))))))))))))))))))))))))))))))))))))))))))))))))))))))))))))))))))))))))))))))))))))))))))))))))))))))))))))))))))))))))))))))))))))))))))))))))))))))))))))))
(assert
 (let (($x541 (<= 0 y_beta)))
 (or (> y_months (- (+ (* 2023 12) 6) 24003)) (and (= y_months (- (+ (* 2023 12) 6) 24003)) $x541))))
(assert
 (and (= x_months (- (+ (* 2096 12) 1) 24003)) (= 29 x_beta)))
(assert
 (and (= y_months (- (+ (* 2096 12) 3) 24003)) (= 14 y_beta)))
(check-sat)
